; benchmark generated from python API
(set-info :status unknown)
(declare-fun cell_1_8 () Int)
(declare-fun cell_1_9 () Int)
(declare-fun cell_2_2 () Int)
(declare-fun cell_2_5 () Int)
(declare-fun cell_3_1 () Int)
(declare-fun cell_3_4 () Int)
(declare-fun cell_4_2 () Int)
(declare-fun cell_4_9 () Int)
(declare-fun cell_5_1 () Int)
(declare-fun cell_6_6 () Int)
(declare-fun cell_7_7 () Int)
(declare-fun cell_8_5 () Int)
(declare-fun cell_9_3 () Int)
(declare-fun cell_1_1 () Int)
(declare-fun cell_2_1 () Int)
(declare-fun cell_4_1 () Int)
(declare-fun cell_6_1 () Int)
(declare-fun cell_7_1 () Int)
(declare-fun cell_8_1 () Int)
(declare-fun cell_9_1 () Int)
(declare-fun cell_1_2 () Int)
(declare-fun cell_3_2 () Int)
(declare-fun cell_5_2 () Int)
(declare-fun cell_6_2 () Int)
(declare-fun cell_7_2 () Int)
(declare-fun cell_8_2 () Int)
(declare-fun cell_9_2 () Int)
(declare-fun cell_1_3 () Int)
(declare-fun cell_2_3 () Int)
(declare-fun cell_3_3 () Int)
(declare-fun cell_4_3 () Int)
(declare-fun cell_5_3 () Int)
(declare-fun cell_6_3 () Int)
(declare-fun cell_7_3 () Int)
(declare-fun cell_8_3 () Int)
(declare-fun cell_1_4 () Int)
(declare-fun cell_2_4 () Int)
(declare-fun cell_4_4 () Int)
(declare-fun cell_5_4 () Int)
(declare-fun cell_6_4 () Int)
(declare-fun cell_7_4 () Int)
(declare-fun cell_8_4 () Int)
(declare-fun cell_9_4 () Int)
(declare-fun cell_1_5 () Int)
(declare-fun cell_3_5 () Int)
(declare-fun cell_4_5 () Int)
(declare-fun cell_5_5 () Int)
(declare-fun cell_6_5 () Int)
(declare-fun cell_7_5 () Int)
(declare-fun cell_9_5 () Int)
(declare-fun cell_1_6 () Int)
(declare-fun cell_2_6 () Int)
(declare-fun cell_3_6 () Int)
(declare-fun cell_4_6 () Int)
(declare-fun cell_5_6 () Int)
(declare-fun cell_7_6 () Int)
(declare-fun cell_8_6 () Int)
(declare-fun cell_9_6 () Int)
(declare-fun cell_1_7 () Int)
(declare-fun cell_2_7 () Int)
(declare-fun cell_3_7 () Int)
(declare-fun cell_4_7 () Int)
(declare-fun cell_5_7 () Int)
(declare-fun cell_6_7 () Int)
(declare-fun cell_8_7 () Int)
(declare-fun cell_9_7 () Int)
(declare-fun cell_2_8 () Int)
(declare-fun cell_3_8 () Int)
(declare-fun cell_4_8 () Int)
(declare-fun cell_5_8 () Int)
(declare-fun cell_6_8 () Int)
(declare-fun cell_7_8 () Int)
(declare-fun cell_8_8 () Int)
(declare-fun cell_9_8 () Int)
(declare-fun cell_2_9 () Int)
(declare-fun cell_3_9 () Int)
(declare-fun cell_5_9 () Int)
(declare-fun cell_6_9 () Int)
(declare-fun cell_7_9 () Int)
(declare-fun cell_8_9 () Int)
(declare-fun cell_9_9 () Int)
(assert
 (= cell_1_8 1))
(assert
 (= cell_1_9 2))
(assert
 (= cell_2_2 1))
(assert
 (= cell_2_5 2))
(assert
 (= cell_3_1 2))
(assert
 (= cell_3_4 1))
(assert
 (= cell_4_2 2))
(assert
 (= cell_4_9 1))
(assert
 (= cell_5_1 1))
(assert
 (= cell_6_6 1))
(assert
 (= cell_7_7 1))
(assert
 (= cell_8_5 1))
(assert
 (= cell_9_3 1))
(assert
 (let (($x1131 (= cell_1_1 9)))
 (let (($x2703 (= cell_1_1 8)))
 (let (($x1085 (= cell_1_1 7)))
 (let (($x146 (= cell_1_1 6)))
 (let (($x2968 (= cell_1_1 5)))
 (let (($x41 (= cell_1_1 4)))
 (let (($x851 (= cell_1_1 3)))
 (let (($x521 (= cell_1_1 2)))
 (let (($x581 (= cell_1_1 1)))
 (or $x581 $x521 $x851 $x41 $x2968 $x146 $x1085 $x2703 $x1131)))))))))))
(assert
 (let (($x2891 (= cell_2_1 9)))
 (let (($x951 (= cell_2_1 8)))
 (let (($x1961 (= cell_2_1 7)))
 (let (($x2692 (= cell_2_1 6)))
 (let (($x217 (= cell_2_1 5)))
 (let (($x3246 (= cell_2_1 4)))
 (let (($x445 (= cell_2_1 3)))
 (let (($x2067 (= cell_2_1 2)))
 (let (($x2235 (= cell_2_1 1)))
 (or $x2235 $x2067 $x445 $x3246 $x217 $x2692 $x1961 $x951 $x2891)))))))))))
(assert
 (let (($x236 (= cell_3_1 2)))
 (or (= cell_3_1 1) $x236 (= cell_3_1 3) (= cell_3_1 4) (= cell_3_1 5) (= cell_3_1 6) (= cell_3_1 7) (= cell_3_1 8) (= cell_3_1 9))))
(assert
 (let (($x803 (= cell_4_1 9)))
 (let (($x870 (= cell_4_1 8)))
 (let (($x1092 (= cell_4_1 7)))
 (let (($x2479 (= cell_4_1 6)))
 (let (($x1908 (= cell_4_1 5)))
 (let (($x3386 (= cell_4_1 4)))
 (let (($x852 (= cell_4_1 3)))
 (let (($x2381 (= cell_4_1 2)))
 (let (($x2656 (= cell_4_1 1)))
 (or $x2656 $x2381 $x852 $x3386 $x1908 $x2479 $x1092 $x870 $x803)))))))))))
(assert
 (let (($x891 (= cell_5_1 1)))
 (or $x891 (= cell_5_1 2) (= cell_5_1 3) (= cell_5_1 4) (= cell_5_1 5) (= cell_5_1 6) (= cell_5_1 7) (= cell_5_1 8) (= cell_5_1 9))))
(assert
 (let (($x240 (= cell_6_1 9)))
 (let (($x3025 (= cell_6_1 8)))
 (let (($x44 (= cell_6_1 7)))
 (let (($x2475 (= cell_6_1 6)))
 (let (($x1334 (= cell_6_1 5)))
 (let (($x1956 (= cell_6_1 4)))
 (let (($x797 (= cell_6_1 3)))
 (let (($x2550 (= cell_6_1 2)))
 (let (($x962 (= cell_6_1 1)))
 (or $x962 $x2550 $x797 $x1956 $x1334 $x2475 $x44 $x3025 $x240)))))))))))
(assert
 (let (($x731 (= cell_7_1 9)))
 (let (($x3094 (= cell_7_1 8)))
 (let (($x3284 (= cell_7_1 7)))
 (let (($x606 (= cell_7_1 6)))
 (let (($x972 (= cell_7_1 5)))
 (let (($x1125 (= cell_7_1 4)))
 (let (($x483 (= cell_7_1 3)))
 (let (($x2742 (= cell_7_1 2)))
 (let (($x1857 (= cell_7_1 1)))
 (or $x1857 $x2742 $x483 $x1125 $x972 $x606 $x3284 $x3094 $x731)))))))))))
(assert
 (let (($x804 (= cell_8_1 9)))
 (let (($x2669 (= cell_8_1 8)))
 (let (($x1933 (= cell_8_1 7)))
 (let (($x2673 (= cell_8_1 6)))
 (let (($x1030 (= cell_8_1 5)))
 (let (($x926 (= cell_8_1 4)))
 (let (($x2516 (= cell_8_1 3)))
 (let (($x2125 (= cell_8_1 2)))
 (let (($x2501 (= cell_8_1 1)))
 (or $x2501 $x2125 $x2516 $x926 $x1030 $x2673 $x1933 $x2669 $x804)))))))))))
(assert
 (let (($x2147 (= cell_9_1 9)))
 (let (($x300 (= cell_9_1 8)))
 (let (($x2785 (= cell_9_1 7)))
 (let (($x3316 (= cell_9_1 6)))
 (let (($x3189 (= cell_9_1 5)))
 (let (($x427 (= cell_9_1 4)))
 (let (($x1727 (= cell_9_1 3)))
 (let (($x3098 (= cell_9_1 2)))
 (let (($x100 (= cell_9_1 1)))
 (or $x100 $x3098 $x1727 $x427 $x3189 $x3316 $x2785 $x300 $x2147)))))))))))
(assert
 (let (($x1040 (= cell_1_2 9)))
 (let (($x1290 (= cell_1_2 8)))
 (let (($x2868 (= cell_1_2 7)))
 (let (($x1024 (= cell_1_2 6)))
 (let (($x2718 (= cell_1_2 5)))
 (let (($x2557 (= cell_1_2 4)))
 (let (($x534 (= cell_1_2 3)))
 (let (($x3121 (= cell_1_2 2)))
 (let (($x474 (= cell_1_2 1)))
 (or $x474 $x3121 $x534 $x2557 $x2718 $x1024 $x2868 $x1290 $x1040)))))))))))
(assert
 (let (($x1682 (= cell_2_2 1)))
 (or $x1682 (= cell_2_2 2) (= cell_2_2 3) (= cell_2_2 4) (= cell_2_2 5) (= cell_2_2 6) (= cell_2_2 7) (= cell_2_2 8) (= cell_2_2 9))))
(assert
 (let (($x1034 (= cell_3_2 9)))
 (let (($x2436 (= cell_3_2 8)))
 (let (($x1673 (= cell_3_2 7)))
 (let (($x662 (= cell_3_2 6)))
 (let (($x1996 (= cell_3_2 5)))
 (let (($x3191 (= cell_3_2 4)))
 (let (($x1325 (= cell_3_2 3)))
 (let (($x1083 (= cell_3_2 2)))
 (let (($x2729 (= cell_3_2 1)))
 (or $x2729 $x1083 $x1325 $x3191 $x1996 $x662 $x1673 $x2436 $x1034)))))))))))
(assert
 (let (($x2893 (= cell_4_2 2)))
 (or (= cell_4_2 1) $x2893 (= cell_4_2 3) (= cell_4_2 4) (= cell_4_2 5) (= cell_4_2 6) (= cell_4_2 7) (= cell_4_2 8) (= cell_4_2 9))))
(assert
 (let (($x3381 (= cell_5_2 2)))
 (let (($x2885 (= cell_5_2 1)))
 (or $x2885 $x3381 (= cell_5_2 3) (= cell_5_2 4) (= cell_5_2 5) (= cell_5_2 6) (= cell_5_2 7) (= cell_5_2 8) (= cell_5_2 9)))))
(assert
 (let (($x2730 (= cell_6_2 9)))
 (let (($x1941 (= cell_6_2 8)))
 (let (($x1007 (= cell_6_2 7)))
 (let (($x2162 (= cell_6_2 6)))
 (let (($x2651 (= cell_6_2 5)))
 (let (($x573 (= cell_6_2 4)))
 (let (($x2076 (= cell_6_2 3)))
 (let (($x684 (= cell_6_2 2)))
 (let (($x1740 (= cell_6_2 1)))
 (or $x1740 $x684 $x2076 $x573 $x2651 $x2162 $x1007 $x1941 $x2730)))))))))))
(assert
 (let (($x1025 (= cell_7_2 9)))
 (let (($x1579 (= cell_7_2 8)))
 (let (($x2931 (= cell_7_2 7)))
 (let (($x4015 (= cell_7_2 6)))
 (let (($x1133 (= cell_7_2 5)))
 (let (($x2997 (= cell_7_2 4)))
 (let (($x2465 (= cell_7_2 3)))
 (let (($x2438 (= cell_7_2 2)))
 (let (($x1616 (= cell_7_2 1)))
 (or $x1616 $x2438 $x2465 $x2997 $x1133 $x4015 $x2931 $x1579 $x1025)))))))))))
(assert
 (let (($x884 (= cell_8_2 9)))
 (let (($x1874 (= cell_8_2 8)))
 (let (($x3043 (= cell_8_2 7)))
 (let (($x1265 (= cell_8_2 6)))
 (let (($x1848 (= cell_8_2 5)))
 (let (($x66 (= cell_8_2 4)))
 (let (($x1923 (= cell_8_2 3)))
 (let (($x2456 (= cell_8_2 2)))
 (let (($x2355 (= cell_8_2 1)))
 (or $x2355 $x2456 $x1923 $x66 $x1848 $x1265 $x3043 $x1874 $x884)))))))))))
(assert
 (let (($x2402 (= cell_9_2 9)))
 (let (($x1551 (= cell_9_2 8)))
 (let (($x140 (= cell_9_2 7)))
 (let (($x1537 (= cell_9_2 6)))
 (let (($x339 (= cell_9_2 5)))
 (let (($x3490 (= cell_9_2 4)))
 (let (($x2911 (= cell_9_2 3)))
 (let (($x2001 (= cell_9_2 2)))
 (let (($x1609 (= cell_9_2 1)))
 (or $x1609 $x2001 $x2911 $x3490 $x339 $x1537 $x140 $x1551 $x2402)))))))))))
(assert
 (let (($x2384 (= cell_1_3 9)))
 (let (($x2292 (= cell_1_3 8)))
 (let (($x1202 (= cell_1_3 7)))
 (let (($x1865 (= cell_1_3 6)))
 (let (($x1968 (= cell_1_3 5)))
 (let (($x3233 (= cell_1_3 4)))
 (let (($x1021 (= cell_1_3 3)))
 (let (($x3376 (= cell_1_3 2)))
 (let (($x432 (= cell_1_3 1)))
 (or $x432 $x3376 $x1021 $x3233 $x1968 $x1865 $x1202 $x2292 $x2384)))))))))))
(assert
 (let (($x2894 (= cell_2_3 9)))
 (let (($x469 (= cell_2_3 8)))
 (let (($x3005 (= cell_2_3 7)))
 (let (($x2984 (= cell_2_3 6)))
 (let (($x1827 (= cell_2_3 5)))
 (let (($x2406 (= cell_2_3 4)))
 (let (($x1637 (= cell_2_3 3)))
 (let (($x3270 (= cell_2_3 2)))
 (let (($x770 (= cell_2_3 1)))
 (or $x770 $x3270 $x1637 $x2406 $x1827 $x2984 $x3005 $x469 $x2894)))))))))))
(assert
 (let (($x508 (= cell_3_3 9)))
 (let (($x657 (= cell_3_3 8)))
 (let (($x599 (= cell_3_3 7)))
 (let (($x26 (= cell_3_3 6)))
 (let (($x2370 (= cell_3_3 5)))
 (let (($x591 (= cell_3_3 4)))
 (let (($x1952 (= cell_3_3 3)))
 (let (($x2842 (= cell_3_3 2)))
 (let (($x911 (= cell_3_3 1)))
 (or $x911 $x2842 $x1952 $x591 $x2370 $x26 $x599 $x657 $x508)))))))))))
(assert
 (let (($x504 (= cell_4_3 9)))
 (let (($x863 (= cell_4_3 8)))
 (let (($x2442 (= cell_4_3 7)))
 (let (($x2553 (= cell_4_3 6)))
 (let (($x2954 (= cell_4_3 5)))
 (let (($x2388 (= cell_4_3 4)))
 (let (($x531 (= cell_4_3 3)))
 (let (($x1237 (= cell_4_3 2)))
 (let (($x831 (= cell_4_3 1)))
 (or $x831 $x1237 $x531 $x2388 $x2954 $x2553 $x2442 $x863 $x504)))))))))))
(assert
 (let (($x2265 (= cell_5_3 9)))
 (let (($x1814 (= cell_5_3 8)))
 (let (($x23 (= cell_5_3 7)))
 (let (($x108 (= cell_5_3 6)))
 (let (($x3404 (= cell_5_3 5)))
 (let (($x3141 (= cell_5_3 4)))
 (let (($x1172 (= cell_5_3 3)))
 (let (($x324 (= cell_5_3 2)))
 (let (($x966 (= cell_5_3 1)))
 (or $x966 $x324 $x1172 $x3141 $x3404 $x108 $x23 $x1814 $x2265)))))))))))
(assert
 (let (($x135 (= cell_6_3 9)))
 (let (($x2433 (= cell_6_3 8)))
 (let (($x782 (= cell_6_3 7)))
 (let (($x990 (= cell_6_3 6)))
 (let (($x1044 (= cell_6_3 5)))
 (let (($x655 (= cell_6_3 4)))
 (let (($x2373 (= cell_6_3 3)))
 (let (($x2752 (= cell_6_3 2)))
 (let (($x2543 (= cell_6_3 1)))
 (or $x2543 $x2752 $x2373 $x655 $x1044 $x990 $x782 $x2433 $x135)))))))))))
(assert
 (let (($x597 (= cell_7_3 9)))
 (let (($x885 (= cell_7_3 8)))
 (let (($x2527 (= cell_7_3 7)))
 (let (($x91 (= cell_7_3 6)))
 (let (($x3047 (= cell_7_3 5)))
 (let (($x3420 (= cell_7_3 4)))
 (let (($x8125 (= cell_7_3 3)))
 (let (($x1691 (= cell_7_3 2)))
 (let (($x1278 (= cell_7_3 1)))
 (or $x1278 $x1691 $x8125 $x3420 $x3047 $x91 $x2527 $x885 $x597)))))))))))
(assert
 (let (($x559 (= cell_8_3 9)))
 (let (($x2446 (= cell_8_3 8)))
 (let (($x1281 (= cell_8_3 7)))
 (let (($x3180 (= cell_8_3 6)))
 (let (($x645 (= cell_8_3 5)))
 (let (($x2040 (= cell_8_3 4)))
 (let (($x1183 (= cell_8_3 3)))
 (let (($x1084 (= cell_8_3 2)))
 (let (($x516 (= cell_8_3 1)))
 (or $x516 $x1084 $x1183 $x2040 $x645 $x3180 $x1281 $x2446 $x559)))))))))))
(assert
 (let (($x2665 (= cell_9_3 1)))
 (or $x2665 (= cell_9_3 2) (= cell_9_3 3) (= cell_9_3 4) (= cell_9_3 5) (= cell_9_3 6) (= cell_9_3 7) (= cell_9_3 8) (= cell_9_3 9))))
(assert
 (let (($x2580 (= cell_1_4 9)))
 (let (($x1810 (= cell_1_4 8)))
 (let (($x729 (= cell_1_4 7)))
 (let (($x3203 (= cell_1_4 6)))
 (let (($x2024 (= cell_1_4 5)))
 (let (($x1730 (= cell_1_4 4)))
 (let (($x696 (= cell_1_4 3)))
 (let (($x2910 (= cell_1_4 2)))
 (let (($x1076 (= cell_1_4 1)))
 (or $x1076 $x2910 $x696 $x1730 $x2024 $x3203 $x729 $x1810 $x2580)))))))))))
(assert
 (let (($x2461 (= cell_2_4 9)))
 (let (($x315 (= cell_2_4 8)))
 (let (($x1154 (= cell_2_4 7)))
 (let (($x1479 (= cell_2_4 6)))
 (let (($x1361 (= cell_2_4 5)))
 (let (($x477 (= cell_2_4 4)))
 (let (($x408 (= cell_2_4 3)))
 (let (($x983 (= cell_2_4 2)))
 (let (($x352 (= cell_2_4 1)))
 (or $x352 $x983 $x408 $x477 $x1361 $x1479 $x1154 $x315 $x2461)))))))))))
(assert
 (let (($x570 (= cell_3_4 1)))
 (or $x570 (= cell_3_4 2) (= cell_3_4 3) (= cell_3_4 4) (= cell_3_4 5) (= cell_3_4 6) (= cell_3_4 7) (= cell_3_4 8) (= cell_3_4 9))))
(assert
 (let (($x2950 (= cell_4_4 9)))
 (let (($x1338 (= cell_4_4 8)))
 (let (($x765 (= cell_4_4 7)))
 (let (($x1808 (= cell_4_4 6)))
 (let (($x3393 (= cell_4_4 5)))
 (let (($x2627 (= cell_4_4 4)))
 (let (($x2998 (= cell_4_4 3)))
 (let (($x1303 (= cell_4_4 2)))
 (let (($x801 (= cell_4_4 1)))
 (or $x801 $x1303 $x2998 $x2627 $x3393 $x1808 $x765 $x1338 $x2950)))))))))))
(assert
 (let (($x1047 (= cell_5_4 9)))
 (let (($x286 (= cell_5_4 8)))
 (let (($x2933 (= cell_5_4 7)))
 (let (($x2416 (= cell_5_4 6)))
 (let (($x2940 (= cell_5_4 5)))
 (let (($x2773 (= cell_5_4 4)))
 (let (($x1988 (= cell_5_4 3)))
 (let (($x2368 (= cell_5_4 2)))
 (let (($x933 (= cell_5_4 1)))
 (or $x933 $x2368 $x1988 $x2773 $x2940 $x2416 $x2933 $x286 $x1047)))))))))))
(assert
 (let (($x3368 (= cell_6_4 9)))
 (let (($x1696 (= cell_6_4 8)))
 (let (($x1929 (= cell_6_4 7)))
 (let (($x946 (= cell_6_4 6)))
 (let (($x1936 (= cell_6_4 5)))
 (let (($x3222 (= cell_6_4 4)))
 (let (($x205 (= cell_6_4 3)))
 (let (($x2108 (= cell_6_4 2)))
 (let (($x579 (= cell_6_4 1)))
 (or $x579 $x2108 $x205 $x3222 $x1936 $x946 $x1929 $x1696 $x3368)))))))))))
(assert
 (let (($x1050 (= cell_7_4 9)))
 (let (($x76 (= cell_7_4 8)))
 (let (($x3114 (= cell_7_4 7)))
 (let (($x1171 (= cell_7_4 6)))
 (let (($x740 (= cell_7_4 5)))
 (let (($x485 (= cell_7_4 4)))
 (let (($x1155 (= cell_7_4 3)))
 (let (($x3350 (= cell_7_4 2)))
 (let (($x2405 (= cell_7_4 1)))
 (or $x2405 $x3350 $x1155 $x485 $x740 $x1171 $x3114 $x76 $x1050)))))))))))
(assert
 (let (($x1444 (= cell_8_4 9)))
 (let (($x2141 (= cell_8_4 8)))
 (let (($x1559 (= cell_8_4 7)))
 (let (($x996 (= cell_8_4 6)))
 (let (($x455 (= cell_8_4 5)))
 (let (($x3174 (= cell_8_4 4)))
 (let (($x1312 (= cell_8_4 3)))
 (let (($x2789 (= cell_8_4 2)))
 (let (($x3303 (= cell_8_4 1)))
 (or $x3303 $x2789 $x1312 $x3174 $x455 $x996 $x1559 $x2141 $x1444)))))))))))
(assert
 (let (($x2217 (= cell_9_4 1)))
 (or $x2217 (= cell_9_4 2) (= cell_9_4 3) (= cell_9_4 4) (= cell_9_4 5) (= cell_9_4 6) (= cell_9_4 7) (= cell_9_4 8) (= cell_9_4 9))))
(assert
 (let (($x1970 (= cell_1_5 9)))
 (let (($x1450 (= cell_1_5 8)))
 (let (($x2955 (= cell_1_5 7)))
 (let (($x976 (= cell_1_5 6)))
 (let (($x14 (= cell_1_5 5)))
 (let (($x2986 (= cell_1_5 4)))
 (let (($x478 (= cell_1_5 3)))
 (let (($x2116 (= cell_1_5 2)))
 (let (($x207 (= cell_1_5 1)))
 (or $x207 $x2116 $x478 $x2986 $x14 $x976 $x2955 $x1450 $x1970)))))))))))
(assert
 (let (($x1762 (= cell_2_5 2)))
 (or (= cell_2_5 1) $x1762 (= cell_2_5 3) (= cell_2_5 4) (= cell_2_5 5) (= cell_2_5 6) (= cell_2_5 7) (= cell_2_5 8) (= cell_2_5 9))))
(assert
 (let (($x2463 (= cell_3_5 9)))
 (let (($x357 (= cell_3_5 8)))
 (let (($x3232 (= cell_3_5 7)))
 (let (($x995 (= cell_3_5 6)))
 (let (($x3382 (= cell_3_5 5)))
 (let (($x1786 (= cell_3_5 4)))
 (let (($x2545 (= cell_3_5 3)))
 (let (($x1562 (= cell_3_5 2)))
 (let (($x2348 (= cell_3_5 1)))
 (or $x2348 $x1562 $x2545 $x1786 $x3382 $x995 $x3232 $x357 $x2463)))))))))))
(assert
 (let (($x244 (= cell_4_5 9)))
 (let (($x1127 (= cell_4_5 8)))
 (let (($x3344 (= cell_4_5 7)))
 (let (($x1438 (= cell_4_5 6)))
 (let (($x3059 (= cell_4_5 5)))
 (let (($x1504 (= cell_4_5 4)))
 (let (($x3254 (= cell_4_5 3)))
 (let (($x1725 (= cell_4_5 2)))
 (let (($x3045 (= cell_4_5 1)))
 (or $x3045 $x1725 $x3254 $x1504 $x3059 $x1438 $x3344 $x1127 $x244)))))))))))
(assert
 (let (($x1812 (= cell_5_5 9)))
 (let (($x2495 (= cell_5_5 8)))
 (let (($x2137 (= cell_5_5 7)))
 (let (($x2576 (= cell_5_5 6)))
 (let (($x2698 (= cell_5_5 5)))
 (let (($x2353 (= cell_5_5 4)))
 (let (($x845 (= cell_5_5 3)))
 (let (($x1187 (= cell_5_5 2)))
 (let (($x1355 (= cell_5_5 1)))
 (or $x1355 $x1187 $x845 $x2353 $x2698 $x2576 $x2137 $x2495 $x1812)))))))))))
(assert
 (let (($x296 (= cell_6_5 9)))
 (let (($x944 (= cell_6_5 8)))
 (let (($x837 (= cell_6_5 7)))
 (let (($x594 (= cell_6_5 6)))
 (let (($x2296 (= cell_6_5 5)))
 (let (($x2691 (= cell_6_5 4)))
 (let (($x458 (= cell_6_5 3)))
 (let (($x1641 (= cell_6_5 2)))
 (let (($x2999 (= cell_6_5 1)))
 (or $x2999 $x1641 $x458 $x2691 $x2296 $x594 $x837 $x944 $x296)))))))))))
(assert
 (let (($x653 (= cell_7_5 9)))
 (let (($x3165 (= cell_7_5 8)))
 (let (($x2567 (= cell_7_5 7)))
 (let (($x1018 (= cell_7_5 6)))
 (let (($x3252 (= cell_7_5 5)))
 (let (($x1568 (= cell_7_5 4)))
 (let (($x742 (= cell_7_5 3)))
 (let (($x915 (= cell_7_5 2)))
 (let (($x1168 (= cell_7_5 1)))
 (or $x1168 $x915 $x742 $x1568 $x3252 $x1018 $x2567 $x3165 $x653)))))))))))
(assert
 (let (($x1455 (= cell_8_5 1)))
 (or $x1455 (= cell_8_5 2) (= cell_8_5 3) (= cell_8_5 4) (= cell_8_5 5) (= cell_8_5 6) (= cell_8_5 7) (= cell_8_5 8) (= cell_8_5 9))))
(assert
 (let (($x1564 (= cell_9_5 2)))
 (let (($x326 (= cell_9_5 1)))
 (or $x326 $x1564 (= cell_9_5 3) (= cell_9_5 4) (= cell_9_5 5) (= cell_9_5 6) (= cell_9_5 7) (= cell_9_5 8) (= cell_9_5 9)))))
(assert
 (let (($x1022 (= cell_1_6 9)))
 (let (($x266 (= cell_1_6 8)))
 (let (($x1179 (= cell_1_6 7)))
 (let (($x1205 (= cell_1_6 6)))
 (let (($x542 (= cell_1_6 5)))
 (let (($x679 (= cell_1_6 4)))
 (let (($x723 (= cell_1_6 3)))
 (let (($x2904 (= cell_1_6 2)))
 (let (($x195 (= cell_1_6 1)))
 (or $x195 $x2904 $x723 $x679 $x542 $x1205 $x1179 $x266 $x1022)))))))))))
(assert
 (let (($x103 (= cell_2_6 9)))
 (let (($x1404 (= cell_2_6 8)))
 (let (($x1431 (= cell_2_6 7)))
 (let (($x384 (= cell_2_6 6)))
 (let (($x2687 (= cell_2_6 5)))
 (let (($x2159 (= cell_2_6 4)))
 (let (($x3072 (= cell_2_6 3)))
 (let (($x640 (= cell_2_6 2)))
 (let (($x3314 (= cell_2_6 1)))
 (or $x3314 $x640 $x3072 $x2159 $x2687 $x384 $x1431 $x1404 $x103)))))))))))
(assert
 (let (($x3419 (= cell_3_6 9)))
 (let (($x2733 (= cell_3_6 8)))
 (let (($x3197 (= cell_3_6 7)))
 (let (($x2047 (= cell_3_6 6)))
 (let (($x1196 (= cell_3_6 5)))
 (let (($x934 (= cell_3_6 4)))
 (let (($x2810 (= cell_3_6 3)))
 (let (($x1797 (= cell_3_6 2)))
 (let (($x267 (= cell_3_6 1)))
 (or $x267 $x1797 $x2810 $x934 $x1196 $x2047 $x3197 $x2733 $x3419)))))))))))
(assert
 (let (($x1918 (= cell_4_6 9)))
 (let (($x327 (= cell_4_6 8)))
 (let (($x611 (= cell_4_6 7)))
 (let (($x514 (= cell_4_6 6)))
 (let (($x2635 (= cell_4_6 5)))
 (let (($x965 (= cell_4_6 4)))
 (let (($x1256 (= cell_4_6 3)))
 (let (($x1723 (= cell_4_6 2)))
 (let (($x985 (= cell_4_6 1)))
 (or $x985 $x1723 $x1256 $x965 $x2635 $x514 $x611 $x327 $x1918)))))))))))
(assert
 (let (($x476 (= cell_5_6 9)))
 (let (($x1425 (= cell_5_6 8)))
 (let (($x1825 (= cell_5_6 7)))
 (let (($x1476 (= cell_5_6 6)))
 (let (($x151 (= cell_5_6 5)))
 (let (($x1639 (= cell_5_6 4)))
 (let (($x2428 (= cell_5_6 3)))
 (let (($x2377 (= cell_5_6 2)))
 (let (($x3161 (= cell_5_6 1)))
 (or $x3161 $x2377 $x2428 $x1639 $x151 $x1476 $x1825 $x1425 $x476)))))))))))
(assert
 (let (($x438 (= cell_6_6 1)))
 (or $x438 (= cell_6_6 2) (= cell_6_6 3) (= cell_6_6 4) (= cell_6_6 5) (= cell_6_6 6) (= cell_6_6 7) (= cell_6_6 8) (= cell_6_6 9))))
(assert
 (let (($x2541 (= cell_7_6 9)))
 (let (($x2713 (= cell_7_6 8)))
 (let (($x3014 (= cell_7_6 7)))
 (let (($x793 (= cell_7_6 6)))
 (let (($x3182 (= cell_7_6 5)))
 (let (($x3228 (= cell_7_6 4)))
 (let (($x394 (= cell_7_6 3)))
 (let (($x3392 (= cell_7_6 2)))
 (let (($x2459 (= cell_7_6 1)))
 (or $x2459 $x3392 $x394 $x3228 $x3182 $x793 $x3014 $x2713 $x2541)))))))))))
(assert
 (let (($x1218 (= cell_8_6 1)))
 (or $x1218 (= cell_8_6 2) (= cell_8_6 3) (= cell_8_6 4) (= cell_8_6 5) (= cell_8_6 6) (= cell_8_6 7) (= cell_8_6 8) (= cell_8_6 9))))
(assert
 (let (($x1029 (= cell_9_6 1)))
 (or $x1029 (= cell_9_6 2) (= cell_9_6 3) (= cell_9_6 4) (= cell_9_6 5) (= cell_9_6 6) (= cell_9_6 7) (= cell_9_6 8) (= cell_9_6 9))))
(assert
 (let (($x82 (= cell_1_7 9)))
 (let (($x1310 (= cell_1_7 8)))
 (let (($x2404 (= cell_1_7 7)))
 (let (($x422 (= cell_1_7 6)))
 (let (($x1169 (= cell_1_7 5)))
 (let (($x1108 (= cell_1_7 4)))
 (let (($x1464 (= cell_1_7 3)))
 (let (($x4467 (= cell_1_7 2)))
 (let (($x297 (= cell_1_7 1)))
 (or $x297 $x4467 $x1464 $x1108 $x1169 $x422 $x2404 $x1310 $x82)))))))))))
(assert
 (let (($x1041 (= cell_2_7 9)))
 (let (($x259 (= cell_2_7 8)))
 (let (($x1852 (= cell_2_7 7)))
 (let (($x317 (= cell_2_7 6)))
 (let (($x491 (= cell_2_7 5)))
 (let (($x781 (= cell_2_7 4)))
 (let (($x2130 (= cell_2_7 3)))
 (let (($x1518 (= cell_2_7 2)))
 (let (($x3049 (= cell_2_7 1)))
 (or $x3049 $x1518 $x2130 $x781 $x491 $x317 $x1852 $x259 $x1041)))))))))))
(assert
 (let (($x1161 (= cell_3_7 9)))
 (let (($x97 (= cell_3_7 8)))
 (let (($x784 (= cell_3_7 7)))
 (let (($x2136 (= cell_3_7 6)))
 (let (($x778 (= cell_3_7 5)))
 (let (($x307 (= cell_3_7 4)))
 (let (($x535 (= cell_3_7 3)))
 (let (($x2077 (= cell_3_7 2)))
 (let (($x674 (= cell_3_7 1)))
 (or $x674 $x2077 $x535 $x307 $x778 $x2136 $x784 $x97 $x1161)))))))))))
(assert
 (let (($x2761 (= cell_4_7 9)))
 (let (($x2504 (= cell_4_7 8)))
 (let (($x1752 (= cell_4_7 7)))
 (let (($x2396 (= cell_4_7 6)))
 (let (($x1902 (= cell_4_7 5)))
 (let (($x329 (= cell_4_7 4)))
 (let (($x1038 (= cell_4_7 3)))
 (let (($x2965 (= cell_4_7 2)))
 (let (($x1796 (= cell_4_7 1)))
 (or $x1796 $x2965 $x1038 $x329 $x1902 $x2396 $x1752 $x2504 $x2761)))))))))))
(assert
 (let (($x1140 (= cell_5_7 9)))
 (let (($x757 (= cell_5_7 8)))
 (let (($x2758 (= cell_5_7 7)))
 (let (($x2672 (= cell_5_7 6)))
 (let (($x1828 (= cell_5_7 5)))
 (let (($x336 (= cell_5_7 4)))
 (let (($x1886 (= cell_5_7 3)))
 (let (($x1181 (= cell_5_7 2)))
 (let (($x1081 (= cell_5_7 1)))
 (or $x1081 $x1181 $x1886 $x336 $x1828 $x2672 $x2758 $x757 $x1140)))))))))))
(assert
 (let (($x1494 (= cell_6_7 9)))
 (let (($x2795 (= cell_6_7 8)))
 (let (($x2237 (= cell_6_7 7)))
 (let (($x564 (= cell_6_7 6)))
 (let (($x2596 (= cell_6_7 5)))
 (let (($x1982 (= cell_6_7 4)))
 (let (($x494 (= cell_6_7 3)))
 (let (($x425 (= cell_6_7 2)))
 (let (($x730 (= cell_6_7 1)))
 (or $x730 $x425 $x494 $x1982 $x2596 $x564 $x2237 $x2795 $x1494)))))))))))
(assert
 (let (($x2462 (= cell_7_7 1)))
 (or $x2462 (= cell_7_7 2) (= cell_7_7 3) (= cell_7_7 4) (= cell_7_7 5) (= cell_7_7 6) (= cell_7_7 7) (= cell_7_7 8) (= cell_7_7 9))))
(assert
 (let (($x1245 (= cell_8_7 1)))
 (or $x1245 (= cell_8_7 2) (= cell_8_7 3) (= cell_8_7 4) (= cell_8_7 5) (= cell_8_7 6) (= cell_8_7 7) (= cell_8_7 8) (= cell_8_7 9))))
(assert
 (let (($x3065 (= cell_9_7 1)))
 (or $x3065 (= cell_9_7 2) (= cell_9_7 3) (= cell_9_7 4) (= cell_9_7 5) (= cell_9_7 6) (= cell_9_7 7) (= cell_9_7 8) (= cell_9_7 9))))
(assert
 (let (($x2211 (= cell_1_8 1)))
 (or $x2211 (= cell_1_8 2) (= cell_1_8 3) (= cell_1_8 4) (= cell_1_8 5) (= cell_1_8 6) (= cell_1_8 7) (= cell_1_8 8) (= cell_1_8 9))))
(assert
 (let (($x2887 (= cell_2_8 2)))
 (let (($x909 (= cell_2_8 1)))
 (or $x909 $x2887 (= cell_2_8 3) (= cell_2_8 4) (= cell_2_8 5) (= cell_2_8 6) (= cell_2_8 7) (= cell_2_8 8) (= cell_2_8 9)))))
(assert
 (let (($x1195 (= cell_3_8 2)))
 (let (($x1132 (= cell_3_8 1)))
 (or $x1132 $x1195 (= cell_3_8 3) (= cell_3_8 4) (= cell_3_8 5) (= cell_3_8 6) (= cell_3_8 7) (= cell_3_8 8) (= cell_3_8 9)))))
(assert
 (let (($x4400 (= cell_4_8 9)))
 (let (($x69 (= cell_4_8 8)))
 (let (($x454 (= cell_4_8 7)))
 (let (($x2270 (= cell_4_8 6)))
 (let (($x441 (= cell_4_8 5)))
 (let (($x1020 (= cell_4_8 4)))
 (let (($x2037 (= cell_4_8 3)))
 (let (($x1595 (= cell_4_8 2)))
 (let (($x7588 (= cell_4_8 1)))
 (or $x7588 $x1595 $x2037 $x1020 $x441 $x2270 $x454 $x69 $x4400)))))))))))
(assert
 (let (($x3282 (= cell_5_8 1)))
 (or $x3282 (= cell_5_8 2) (= cell_5_8 3) (= cell_5_8 4) (= cell_5_8 5) (= cell_5_8 6) (= cell_5_8 7) (= cell_5_8 8) (= cell_5_8 9))))
(assert
 (let (($x2572 (= cell_6_8 9)))
 (let (($x3142 (= cell_6_8 8)))
 (let (($x8354 (= cell_6_8 7)))
 (let (($x2675 (= cell_6_8 6)))
 (let (($x537 (= cell_6_8 5)))
 (let (($x849 (= cell_6_8 4)))
 (let (($x1542 (= cell_6_8 3)))
 (let (($x1418 (= cell_6_8 2)))
 (let (($x1851 (= cell_6_8 1)))
 (or $x1851 $x1418 $x1542 $x849 $x537 $x2675 $x8354 $x3142 $x2572)))))))))))
(assert
 (let (($x1953 (= cell_7_8 1)))
 (or $x1953 (= cell_7_8 2) (= cell_7_8 3) (= cell_7_8 4) (= cell_7_8 5) (= cell_7_8 6) (= cell_7_8 7) (= cell_7_8 8) (= cell_7_8 9))))
(assert
 (let (($x1255 (= cell_8_8 1)))
 (or $x1255 (= cell_8_8 2) (= cell_8_8 3) (= cell_8_8 4) (= cell_8_8 5) (= cell_8_8 6) (= cell_8_8 7) (= cell_8_8 8) (= cell_8_8 9))))
(assert
 (let (($x754 (= cell_9_8 1)))
 (or $x754 (= cell_9_8 2) (= cell_9_8 3) (= cell_9_8 4) (= cell_9_8 5) (= cell_9_8 6) (= cell_9_8 7) (= cell_9_8 8) (= cell_9_8 9))))
(assert
 (let (($x1990 (= cell_1_9 2)))
 (or (= cell_1_9 1) $x1990 (= cell_1_9 3) (= cell_1_9 4) (= cell_1_9 5) (= cell_1_9 6) (= cell_1_9 7) (= cell_1_9 8) (= cell_1_9 9))))
(assert
 (let (($x3220 (= cell_2_9 9)))
 (let (($x260 (= cell_2_9 8)))
 (let (($x2889 (= cell_2_9 7)))
 (let (($x2896 (= cell_2_9 6)))
 (let (($x526 (= cell_2_9 5)))
 (let (($x2205 (= cell_2_9 4)))
 (let (($x2256 (= cell_2_9 3)))
 (let (($x2083 (= cell_2_9 2)))
 (let (($x153 (= cell_2_9 1)))
 (or $x153 $x2083 $x2256 $x2205 $x526 $x2896 $x2889 $x260 $x3220)))))))))))
(assert
 (let (($x1262 (= cell_3_9 9)))
 (let (($x1273 (= cell_3_9 8)))
 (let (($x2307 (= cell_3_9 7)))
 (let (($x2086 (= cell_3_9 6)))
 (let (($x2359 (= cell_3_9 5)))
 (let (($x2618 (= cell_3_9 4)))
 (let (($x55 (= cell_3_9 3)))
 (let (($x1017 (= cell_3_9 2)))
 (let (($x2895 (= cell_3_9 1)))
 (or $x2895 $x1017 $x55 $x2618 $x2359 $x2086 $x2307 $x1273 $x1262)))))))))))
(assert
 (let (($x38 (= cell_4_9 1)))
 (or $x38 (= cell_4_9 2) (= cell_4_9 3) (= cell_4_9 4) (= cell_4_9 5) (= cell_4_9 6) (= cell_4_9 7) (= cell_4_9 8) (= cell_4_9 9))))
(assert
 (let (($x234 (= cell_5_9 9)))
 (let (($x199 (= cell_5_9 8)))
 (let (($x1122 (= cell_5_9 7)))
 (let (($x1165 (= cell_5_9 6)))
 (let (($x492 (= cell_5_9 5)))
 (let (($x1824 (= cell_5_9 4)))
 (let (($x2783 (= cell_5_9 3)))
 (let (($x2241 (= cell_5_9 2)))
 (let (($x2648 (= cell_5_9 1)))
 (or $x2648 $x2241 $x2783 $x1824 $x492 $x1165 $x1122 $x199 $x234)))))))))))
(assert
 (let (($x708 (= cell_6_9 2)))
 (let (($x2689 (= cell_6_9 1)))
 (or $x2689 $x708 (= cell_6_9 3) (= cell_6_9 4) (= cell_6_9 5) (= cell_6_9 6) (= cell_6_9 7) (= cell_6_9 8) (= cell_6_9 9)))))
(assert
 (let (($x1340 (= cell_7_9 2)))
 (let (($x2701 (= cell_7_9 1)))
 (or $x2701 $x1340 (= cell_7_9 3) (= cell_7_9 4) (= cell_7_9 5) (= cell_7_9 6) (= cell_7_9 7) (= cell_7_9 8) (= cell_7_9 9)))))
(assert
 (let (($x2819 (= cell_8_9 2)))
 (let (($x2207 (= cell_8_9 1)))
 (or $x2207 $x2819 (= cell_8_9 3) (= cell_8_9 4) (= cell_8_9 5) (= cell_8_9 6) (= cell_8_9 7) (= cell_8_9 8) (= cell_8_9 9)))))
(assert
 (let (($x791 (= cell_9_9 2)))
 (let (($x682 (= cell_9_9 1)))
 (or $x682 $x791 (= cell_9_9 3) (= cell_9_9 4) (= cell_9_9 5) (= cell_9_9 6) (= cell_9_9 7) (= cell_9_9 8) (= cell_9_9 9)))))
(assert
 (and (distinct cell_1_1 cell_1_2 cell_1_3 cell_1_4 cell_1_5 cell_1_6 cell_1_7 cell_1_8 cell_1_9) true))
(assert
 (and (distinct cell_2_1 cell_2_2 cell_2_3 cell_2_4 cell_2_5 cell_2_6 cell_2_7 cell_2_8 cell_2_9) true))
(assert
 (and (distinct cell_3_1 cell_3_2 cell_3_3 cell_3_4 cell_3_5 cell_3_6 cell_3_7 cell_3_8 cell_3_9) true))
(assert
 (and (distinct cell_4_1 cell_4_2 cell_4_3 cell_4_4 cell_4_5 cell_4_6 cell_4_7 cell_4_8 cell_4_9) true))
(assert
 (and (distinct cell_5_1 cell_5_2 cell_5_3 cell_5_4 cell_5_5 cell_5_6 cell_5_7 cell_5_8 cell_5_9) true))
(assert
 (and (distinct cell_6_1 cell_6_2 cell_6_3 cell_6_4 cell_6_5 cell_6_6 cell_6_7 cell_6_8 cell_6_9) true))
(assert
 (and (distinct cell_7_1 cell_7_2 cell_7_3 cell_7_4 cell_7_5 cell_7_6 cell_7_7 cell_7_8 cell_7_9) true))
(assert
 (and (distinct cell_8_1 cell_8_2 cell_8_3 cell_8_4 cell_8_5 cell_8_6 cell_8_7 cell_8_8 cell_8_9) true))
(assert
 (and (distinct cell_9_1 cell_9_2 cell_9_3 cell_9_4 cell_9_5 cell_9_6 cell_9_7 cell_9_8 cell_9_9) true))
(assert
 (and (distinct cell_1_1 cell_2_1 cell_3_1 cell_4_1 cell_5_1 cell_6_1 cell_7_1 cell_8_1 cell_9_1) true))
(assert
 (and (distinct cell_1_2 cell_2_2 cell_3_2 cell_4_2 cell_5_2 cell_6_2 cell_7_2 cell_8_2 cell_9_2) true))
(assert
 (and (distinct cell_1_3 cell_2_3 cell_3_3 cell_4_3 cell_5_3 cell_6_3 cell_7_3 cell_8_3 cell_9_3) true))
(assert
 (and (distinct cell_1_4 cell_2_4 cell_3_4 cell_4_4 cell_5_4 cell_6_4 cell_7_4 cell_8_4 cell_9_4) true))
(assert
 (and (distinct cell_1_5 cell_2_5 cell_3_5 cell_4_5 cell_5_5 cell_6_5 cell_7_5 cell_8_5 cell_9_5) true))
(assert
 (and (distinct cell_1_6 cell_2_6 cell_3_6 cell_4_6 cell_5_6 cell_6_6 cell_7_6 cell_8_6 cell_9_6) true))
(assert
 (and (distinct cell_1_7 cell_2_7 cell_3_7 cell_4_7 cell_5_7 cell_6_7 cell_7_7 cell_8_7 cell_9_7) true))
(assert
 (and (distinct cell_1_8 cell_2_8 cell_3_8 cell_4_8 cell_5_8 cell_6_8 cell_7_8 cell_8_8 cell_9_8) true))
(assert
 (and (distinct cell_1_9 cell_2_9 cell_3_9 cell_4_9 cell_5_9 cell_6_9 cell_7_9 cell_8_9 cell_9_9) true))
(assert
 (and (distinct cell_1_1 cell_1_2 cell_1_3 cell_2_1 cell_2_2 cell_2_3 cell_3_1 cell_3_2 cell_3_3) true))
(assert
 (and (distinct cell_1_4 cell_1_5 cell_1_6 cell_2_4 cell_2_5 cell_2_6 cell_3_4 cell_3_5 cell_3_6) true))
(assert
 (and (distinct cell_1_7 cell_1_8 cell_1_9 cell_2_7 cell_2_8 cell_2_9 cell_3_7 cell_3_8 cell_3_9) true))
(assert
 (and (distinct cell_4_1 cell_4_2 cell_4_3 cell_5_1 cell_5_2 cell_5_3 cell_6_1 cell_6_2 cell_6_3) true))
(assert
 (and (distinct cell_4_4 cell_4_5 cell_4_6 cell_5_4 cell_5_5 cell_5_6 cell_6_4 cell_6_5 cell_6_6) true))
(assert
 (and (distinct cell_4_7 cell_4_8 cell_4_9 cell_5_7 cell_5_8 cell_5_9 cell_6_7 cell_6_8 cell_6_9) true))
(assert
 (and (distinct cell_7_1 cell_7_2 cell_7_3 cell_8_1 cell_8_2 cell_8_3 cell_9_1 cell_9_2 cell_9_3) true))
(assert
 (and (distinct cell_7_4 cell_7_5 cell_7_6 cell_8_4 cell_8_5 cell_8_6 cell_9_4 cell_9_5 cell_9_6) true))
(assert
 (and (distinct cell_7_7 cell_7_8 cell_7_9 cell_8_7 cell_8_8 cell_8_9 cell_9_7 cell_9_8 cell_9_9) true))
(assert
 (let (($x428 (and (distinct cell_5_9 cell_6_8 cell_7_7 cell_8_6) true)))
 (let (($x2605 (and (distinct cell_2_9 cell_3_8 cell_4_7 cell_5_6 cell_6_5 cell_7_4 cell_8_3 cell_9_2) true)))
 (let (($x1757 (and (distinct cell_1_8 cell_2_7 cell_3_6 cell_4_5 cell_5_4 cell_6_3 cell_7_2 cell_8_1) true)))
 (let (($x2028 (and (distinct cell_1_5 cell_2_4 cell_3_3 cell_4_2) true)))
 (let (($x3017 (and (distinct cell_5_1 cell_6_2 cell_7_3 cell_8_4) true)))
 (let (($x1311 (and (distinct cell_2_1 cell_3_2 cell_4_3 cell_5_4 cell_6_5 cell_7_6 cell_8_7 cell_9_8) true)))
 (let (($x3015 (and (distinct cell_1_2 cell_2_3 cell_3_4 cell_4_5 cell_5_6 cell_6_7 cell_7_8 cell_8_9) true)))
 (let (($x489 (and (distinct cell_1_5 cell_2_6 cell_3_7 cell_4_8) true)))
 (and $x489 $x3015 $x1311 $x3017 $x2028 $x1757 $x2605 $x428))))))))))
(assert
 (and (distinct cell_5_7 2) true))
(check-sat)
